c 
c G(k,n,p) graph
c graph gen seed     : 328741
c number of vertices : 70
c max number of edges: 1225
c number of classes  : 2
c edge density       : 0.300000
c edge probability   : 0.600000
c data structure     : dense
c
c           Graph Stats
c number of vertices  : 70
c nonisolated vertices: 70
c number of edges     : 733
c edge density        : 0.303520
c max degree          : 29
c avg degree          : 20.94
c min degree          : 14
p col 70 733
e 1 7
e 1 11
e 1 16
e 1 18
e 1 21
e 1 23
e 1 27
e 1 29
e 1 30
e 1 35
e 1 46
e 1 47
e 1 51
e 1 52
e 1 53
e 1 54
e 1 56
e 1 58
e 1 60
e 1 61
e 2 5
e 2 8
e 2 9
e 2 10
e 2 15
e 2 17
e 2 19
e 2 20
e 2 22
e 2 25
e 2 32
e 2 33
e 2 37
e 2 38
e 2 39
e 2 41
e 2 43
e 2 55
e 2 59
e 2 66
e 2 67
e 2 69
e 2 70
e 3 6
e 3 11
e 3 12
e 3 18
e 3 21
e 3 24
e 3 27
e 3 30
e 3 34
e 3 35
e 3 42
e 3 44
e 3 46
e 3 47
e 3 50
e 3 51
e 3 53
e 3 54
e 3 60
e 3 63
e 3 68
e 4 6
e 4 7
e 4 11
e 4 12
e 4 16
e 4 18
e 4 24
e 4 27
e 4 28
e 4 29
e 4 30
e 4 44
e 4 47
e 4 48
e 4 50
e 4 51
e 4 56
e 4 61
e 5 7
e 5 11
e 5 12
e 5 16
e 5 18
e 5 21
e 5 23
e 5 24
e 5 27
e 5 29
e 5 35
e 5 44
e 5 48
e 5 51
e 5 52
e 5 54
e 5 56
e 5 58
e 5 63
e 5 68
e 6 9
e 6 13
e 6 14
e 6 17
e 6 19
e 6 20
e 6 22
e 6 25
e 6 31
e 6 32
e 6 33
e 6 38
e 6 39
e 6 40
e 6 64
e 6 69
e 7 9
e 7 10
e 7 13
e 7 15
e 7 19
e 7 20
e 7 22
e 7 32
e 7 33
e 7 36
e 7 37
e 7 38
e 7 45
e 7 49
e 7 59
e 7 62
e 7 64
e 7 67
e 7 69
e 7 70
e 8 11
e 8 12
e 8 21
e 8 23
e 8 27
e 8 28
e 8 29
e 8 30
e 8 46
e 8 48
e 8 50
e 8 51
e 8 52
e 8 53
e 8 58
e 8 60
e 8 61
e 8 63
e 9 24
e 9 28
e 9 29
e 9 35
e 9 42
e 9 44
e 9 46
e 9 47
e 9 48
e 9 50
e 9 51
e 9 54
e 9 56
e 9 58
e 9 61
e 9 63
e 10 18
e 10 21
e 10 23
e 10 28
e 10 29
e 10 35
e 10 42
e 10 44
e 10 46
e 10 47
e 10 48
e 10 52
e 10 53
e 10 54
e 10 56
e 10 63
e 10 68
e 11 13
e 11 14
e 11 17
e 11 19
e 11 20
e 11 22
e 11 32
e 11 33
e 11 36
e 11 40
e 11 41
e 11 43
e 11 45
e 11 55
e 11 59
e 11 66
e 11 67
e 11 69
e 12 15
e 12 17
e 12 20
e 12 22
e 12 33
e 12 36
e 12 37
e 12 38
e 12 39
e 12 40
e 12 41
e 12 43
e 12 45
e 12 57
e 12 59
e 12 64
e 12 67
e 13 16
e 13 21
e 13 23
e 13 24
e 13 26
e 13 27
e 13 29
e 13 34
e 13 42
e 13 44
e 13 46
e 13 47
e 13 48
e 13 52
e 13 53
e 13 54
e 13 58
e 13 61
e 13 63
e 13 68
e 14 18
e 14 21
e 14 23
e 14 24
e 14 28
e 14 29
e 14 35
e 14 44
e 14 47
e 14 50
e 14 52
e 14 54
e 14 58
e 14 60
e 14 63
e 15 24
e 15 27
e 15 28
e 15 29
e 15 30
e 15 34
e 15 35
e 15 42
e 15 46
e 15 47
e 15 48
e 15 50
e 15 51
e 15 52
e 15 53
e 15 54
e 15 56
e 15 61
e 15 63
e 16 20
e 16 25
e 16 31
e 16 33
e 16 36
e 16 37
e 16 38
e 16 40
e 16 55
e 16 57
e 16 59
e 16 62
e 16 64
e 16 65
e 16 67
e 16 69
e 16 70
e 17 26
e 17 27
e 17 28
e 17 34
e 17 35
e 17 42
e 17 52
e 17 53
e 17 54
e 17 58
e 17 61
e 17 63
e 18 19
e 18 20
e 18 32
e 18 37
e 18 38
e 18 43
e 18 55
e 18 57
e 18 59
e 18 64
e 18 65
e 18 70
e 19 23
e 19 24
e 19 27
e 19 29
e 19 30
e 19 34
e 19 35
e 19 42
e 19 44
e 19 46
e 19 48
e 19 50
e 19 52
e 19 56
e 19 58
e 19 61
e 19 68
e 20 23
e 20 27
e 20 42
e 20 44
e 20 47
e 20 48
e 20 50
e 20 51
e 20 52
e 20 56
e 20 60
e 20 61
e 21 31
e 21 33
e 21 36
e 21 37
e 21 38
e 21 39
e 21 40
e 21 62
e 21 64
e 21 66
e 21 67
e 21 69
e 21 70
e 22 23
e 22 24
e 22 30
e 22 35
e 22 42
e 22 47
e 22 48
e 22 53
e 22 54
e 22 60
e 22 61
e 22 63
e 23 25
e 23 33
e 23 38
e 23 39
e 23 40
e 23 43
e 23 45
e 23 49
e 23 55
e 23 57
e 23 59
e 23 64
e 23 65
e 23 70
e 24 31
e 24 32
e 24 36
e 24 37
e 24 38
e 24 39
e 24 40
e 24 41
e 24 43
e 24 45
e 24 49
e 24 55
e 24 57
e 24 59
e 24 62
e 24 64
e 24 65
e 24 66
e 24 67
e 24 69
e 25 26
e 25 28
e 25 29
e 25 34
e 25 35
e 25 46
e 25 47
e 25 48
e 25 50
e 25 52
e 25 54
e 25 56
e 25 60
e 25 61
e 25 63
e 25 68
e 26 32
e 26 33
e 26 36
e 26 40
e 26 41
e 26 43
e 26 45
e 26 57
e 26 59
e 26 65
e 26 70
e 27 31
e 27 32
e 27 37
e 27 38
e 27 39
e 27 41
e 27 43
e 27 45
e 27 49
e 27 57
e 27 59
e 27 62
e 27 66
e 27 70
e 28 33
e 28 38
e 28 39
e 28 40
e 28 41
e 28 43
e 28 45
e 28 55
e 28 57
e 28 59
e 28 62
e 28 69
e 29 36
e 29 37
e 29 39
e 29 43
e 29 49
e 29 57
e 29 59
e 29 65
e 29 67
e 29 69
e 30 31
e 30 33
e 30 37
e 30 38
e 30 39
e 30 40
e 30 41
e 30 43
e 30 45
e 30 49
e 30 55
e 30 57
e 30 62
e 30 64
e 30 66
e 30 67
e 30 69
e 30 70
e 31 34
e 31 35
e 31 47
e 31 48
e 31 52
e 31 53
e 31 61
e 31 63
e 31 68
e 32 35
e 32 42
e 32 44
e 32 46
e 32 47
e 32 48
e 32 50
e 32 51
e 32 53
e 32 58
e 32 60
e 32 61
e 32 68
e 33 42
e 33 44
e 33 46
e 33 47
e 33 48
e 33 50
e 33 52
e 33 53
e 33 56
e 33 60
e 33 61
e 33 63
e 34 36
e 34 37
e 34 38
e 34 39
e 34 43
e 34 45
e 34 49
e 34 55
e 34 59
e 34 62
e 34 64
e 34 65
e 34 66
e 34 67
e 35 38
e 35 39
e 35 41
e 35 43
e 35 49
e 35 57
e 35 62
e 35 64
e 35 69
e 36 44
e 36 46
e 36 47
e 36 48
e 36 51
e 36 53
e 36 54
e 36 56
e 36 60
e 37 44
e 37 47
e 37 50
e 37 51
e 37 52
e 37 53
e 37 61
e 37 63
e 37 68
e 38 46
e 38 47
e 38 48
e 38 58
e 38 61
e 38 68
e 39 42
e 39 44
e 39 46
e 39 47
e 39 50
e 39 52
e 39 54
e 39 56
e 39 61
e 39 63
e 40 44
e 40 46
e 40 47
e 40 48
e 40 50
e 40 53
e 40 58
e 40 60
e 40 61
e 40 63
e 40 68
e 41 42
e 41 46
e 41 47
e 41 48
e 41 50
e 41 51
e 41 54
e 41 56
e 41 60
e 41 63
e 41 68
e 42 43
e 42 49
e 42 57
e 42 59
e 42 62
e 42 67
e 43 46
e 43 48
e 43 51
e 43 52
e 43 53
e 43 54
e 43 58
e 43 60
e 43 63
e 43 68
e 44 55
e 44 59
e 44 64
e 44 69
e 44 70
e 45 46
e 45 47
e 45 48
e 45 50
e 45 51
e 45 52
e 45 54
e 45 56
e 45 58
e 45 60
e 45 61
e 46 49
e 46 55
e 46 57
e 46 64
e 46 65
e 46 66
e 46 69
e 46 70
e 47 59
e 47 64
e 47 65
e 47 66
e 47 67
e 47 69
e 48 49
e 48 59
e 48 64
e 48 65
e 48 69
e 49 51
e 49 52
e 49 53
e 49 54
e 49 63
e 50 55
e 50 57
e 50 62
e 50 64
e 50 65
e 50 66
e 50 67
e 50 70
e 51 57
e 51 62
e 51 65
e 51 66
e 51 70
e 52 59
e 52 64
e 52 65
e 52 66
e 52 67
e 52 69
e 53 55
e 53 59
e 53 62
e 53 65
e 53 69
e 53 70
e 54 55
e 54 59
e 54 62
e 54 66
e 54 69
e 54 70
e 55 56
e 55 58
e 55 61
e 55 63
e 55 68
e 56 57
e 56 59
e 56 62
e 56 64
e 56 65
e 56 66
e 56 67
e 56 70
e 57 60
e 57 63
e 57 68
e 58 59
e 58 62
e 58 65
e 58 66
e 58 69
e 59 60
e 59 61
e 59 68
e 60 64
e 60 65
e 60 66
e 60 67
e 60 69
e 60 70
e 61 62
e 61 64
e 61 65
e 61 66
e 61 67
e 61 69
e 63 65
e 63 66
e 63 67
e 64 68
e 65 68
e 66 68
e 67 68
e 68 69
e 68 70
